p edge 553
e 0 4
e 0 285
e 0 323
e 0 378
e 1 2
e 1 366
e 1 399
e 1 478
e 1 489
e 1 503
e 2 399
e 3 410
e 3 412
e 3 413
e 3 457
e 3 512
e 3 525
e 3 528
e 3 529
e 4 222
e 4 285
e 4 323
e 5 7
e 5 8
e 5 9
e 5 10
e 5 213
e 5 214
e 5 219
e 6 7
e 6 9
e 7 9
e 7 213
e 8 10
e 8 219
e 8 406
e 8 512
e 9 10
e 9 474
e 10 472
e 10 474
e 10 486
e 10 512
e 11 13
e 11 14
e 11 23
e 12 13
e 12 23
e 12 186
e 12 429
e 12 435
e 13 222
e 13 284
e 13 285
e 14 214
e 14 284
e 14 380
e 14 430
e 15 81
e 15 82
e 16 17
e 16 21
e 16 31
e 16 287
e 16 288
e 16 504
e 18 19
e 18 187
e 18 333
e 18 354
e 18 402
e 18 404
e 19 187
e 19 203
e 19 257
e 19 332
e 19 333
e 19 364
e 20 21
e 20 117
e 20 300
e 20 301
e 20 504
e 21 30
e 21 31
e 21 117
e 21 504
e 22 25
e 22 82
e 23 429
e 23 430
e 24 207
e 24 209
e 24 309
e 24 310
e 24 359
e 24 389
e 25 82
e 25 401
e 25 471
e 26 82
e 26 87
e 26 314
e 26 400
e 26 401
e 26 481
e 26 495
e 27 28
e 27 29
e 27 58
e 27 80
e 27 362
e 28 29
e 30 31
e 30 117
e 30 424
e 30 425
e 30 443
e 31 288
e 31 442
e 32 213
e 32 214
e 32 224
e 32 225
e 32 380
e 32 427
e 33 34
e 33 35
e 34 35
e 34 58
e 34 69
e 34 70
e 34 83
e 34 275
e 34 352
e 36 385
e 36 549
e 36 552
e 37 228
e 37 392
e 37 394
e 37 395
e 37 462
e 37 545
e 38 39
e 38 43
e 38 55
e 38 169
e 38 261
e 38 513
e 38 516
e 39 41
e 39 42
e 39 49
e 39 54
e 39 513
e 39 515
e 40 489
e 40 490
e 40 514
e 41 42
e 42 43
e 42 204
e 42 234
e 42 515
e 43 44
e 43 169
e 43 518
e 44 168
e 44 204
e 44 518
e 45 46
e 45 206
e 45 260
e 45 524
e 46 206
e 46 511
e 46 520
e 47 52
e 47 508
e 47 509
e 47 529
e 48 198
e 48 200
e 48 412
e 48 457
e 48 530
e 49 51
e 49 54
e 49 513
e 49 516
e 50 51
e 50 52
e 50 509
e 50 510
e 50 522
e 50 523
e 51 52
e 51 54
e 51 170
e 51 516
e 51 522
e 52 508
e 52 509
e 52 517
e 53 54
e 53 233
e 53 492
e 53 517
e 53 530
e 54 170
e 54 233
e 54 492
e 54 515
e 55 415
e 55 516
e 56 85
e 56 539
e 56 540
e 57 223
e 57 226
e 57 383
e 57 453
e 58 69
e 58 70
e 58 362
e 59 442
e 59 443
e 59 487
e 59 497
e 59 498
e 60 61
e 60 184
e 60 185
e 60 325
e 60 391
e 61 184
e 61 309
e 61 391
e 61 455
e 61 538
e 62 63
e 62 108
e 62 109
e 62 240
e 62 245
e 62 258
e 63 94
e 63 258
e 63 259
e 64 65
e 64 66
e 64 481
e 65 66
e 65 401
e 65 481
e 66 311
e 66 401
e 66 459
e 66 467
e 66 481
e 67 68
e 67 381
e 67 500
e 67 551
e 68 207
e 68 223
e 68 309
e 68 381
e 68 453
e 68 551
e 69 230
e 69 231
e 70 275
e 70 276
e 70 362
e 71 72
e 71 74
e 71 229
e 71 267
e 71 276
e 71 277
e 71 360
e 71 361
e 71 362
e 71 405
e 71 550
e 72 74
e 72 76
e 72 229
e 72 314
e 72 360
e 72 361
e 73 74
e 73 75
e 73 360
e 74 75
e 74 76
e 74 360
e 74 361
e 75 76
e 75 360
e 76 360
e 77 314
e 77 361
e 77 407
e 77 495
e 77 531
e 78 385
e 78 387
e 78 454
e 78 507
e 78 549
e 79 94
e 79 158
e 79 172
e 79 258
e 80 362
e 80 407
e 80 422
e 81 82
e 82 401
e 82 495
e 83 84
e 83 231
e 83 288
e 83 351
e 83 352
e 83 353
e 83 442
e 83 443
e 85 86
e 85 210
e 85 211
e 85 461
e 85 474
e 85 539
e 87 229
e 87 280
e 87 314
e 87 400
e 88 122
e 88 123
e 88 149
e 88 152
e 88 153
e 88 445
e 89 119
e 89 120
e 89 344
e 89 346
e 89 347
e 90 94
e 90 158
e 90 160
e 90 246
e 91 156
e 91 239
e 91 248
e 91 348
e 91 349
e 92 146
e 92 148
e 92 289
e 92 290
e 92 291
e 93 315
e 93 316
e 93 320
e 93 321
e 93 329
e 94 127
e 95 105
e 95 106
e 95 109
e 95 123
e 95 124
e 96 120
e 96 142
e 96 144
e 96 145
e 96 146
e 97 155
e 97 304
e 97 307
e 97 308
e 97 317
e 98 143
e 98 329
e 98 331
e 98 334
e 99 237
e 99 337
e 99 338
e 99 339
e 100 101
e 100 103
e 100 125
e 100 133
e 100 137
e 100 239
e 100 337
e 101 104
e 101 125
e 101 126
e 101 130
e 101 337
e 102 103
e 102 137
e 102 345
e 102 347
e 103 137
e 103 237
e 103 337
e 103 345
e 104 121
e 104 130
e 104 238
e 104 337
e 105 106
e 105 127
e 105 128
e 105 259
e 106 123
e 106 128
e 106 129
e 106 244
e 107 108
e 107 111
e 107 132
e 107 245
e 107 447
e 108 245
e 108 258
e 109 241
e 109 259
e 110 111
e 110 132
e 110 174
e 110 449
e 111 245
e 111 449
e 112 118
e 112 253
e 112 449
e 112 451
e 113 118
e 113 243
e 113 249
e 113 255
e 114 115
e 114 116
e 114 117
e 114 366
e 114 424
e 114 503
e 115 116
e 116 117
e 117 365
e 117 424
e 118 243
e 118 254
e 118 449
e 119 120
e 119 140
e 119 343
e 119 344
e 120 140
e 120 142
e 121 122
e 121 130
e 121 238
e 122 123
e 122 129
e 122 130
e 122 149
e 122 238
e 122 322
e 122 327
e 123 445
e 124 150
e 124 241
e 124 445
e 125 126
e 125 239
e 125 248
e 126 244
e 126 248
e 127 128
e 127 246
e 127 259
e 128 244
e 128 247
e 128 248
e 129 130
e 129 244
e 130 244
e 131 138
e 131 139
e 131 161
e 131 171
e 132 135
e 132 136
e 132 174
e 133 137
e 133 156
e 133 239
e 134 135
e 134 136
e 134 139
e 134 546
e 135 174
e 135 547
e 136 138
e 136 139
e 136 447
e 137 156
e 137 347
e 138 172
e 139 448
e 140 141
e 140 142
e 140 341
e 140 343
e 141 142
e 141 143
e 141 446
e 142 143
e 142 144
e 143 144
e 143 145
e 143 331
e 143 334
e 143 446
e 144 145
e 145 146
e 145 147
e 145 318
e 145 331
e 146 147
e 146 148
e 146 289
e 146 306
e 147 306
e 147 318
e 147 548
e 148 291
e 148 305
e 148 306
e 149 153
e 149 154
e 150 151
e 150 242
e 150 243
e 151 152
e 151 243
e 151 445
e 152 153
e 152 243
e 152 445
e 153 154
e 153 243
e 153 299
e 154 155
e 154 299
e 154 308
e 154 315
e 154 322
e 155 299
e 155 308
e 156 157
e 156 160
e 156 161
e 156 239
e 156 270
e 156 272
e 156 273
e 156 346
e 156 348
e 157 160
e 157 161
e 157 162
e 158 162
e 158 171
e 159 173
e 159 175
e 159 451
e 159 547
e 160 162
e 160 246
e 160 247
e 160 348
e 160 349
e 161 162
e 161 171
e 161 272
e 161 448
e 163 205
e 163 410
e 163 488
e 163 511
e 164 165
e 164 350
e 164 352
e 164 353
e 164 535
e 165 351
e 165 352
e 165 532
e 165 533
e 166 233
e 166 489
e 166 490
e 166 515
e 167 491
e 167 510
e 167 511
e 167 523
e 168 201
e 168 202
e 168 263
e 169 197
e 169 202
e 169 261
e 169 264
e 169 493
e 169 518
e 170 492
e 170 517
e 171 172
e 172 447
e 173 324
e 173 433
e 173 547
e 174 175
e 174 547
e 175 449
e 175 451
e 175 547
e 176 177
e 176 417
e 176 420
e 177 178
e 177 179
e 177 183
e 177 417
e 177 418
e 178 179
e 178 420
e 178 421
e 179 180
e 179 183
e 180 181
e 180 182
e 180 183
e 180 421
e 181 182
e 181 416
e 181 417
e 181 421
e 181 484
e 182 183
e 182 418
e 182 484
e 183 418
e 184 185
e 184 309
e 184 388
e 185 325
e 185 326
e 185 388
e 186 429
e 186 435
e 186 543
e 187 188
e 187 257
e 187 402
e 187 506
e 189 366
e 189 367
e 190 193
e 190 195
e 190 196
e 191 192
e 191 193
e 191 194
e 191 196
e 191 302
e 191 396
e 191 519
e 192 193
e 192 194
e 192 461
e 193 194
e 193 195
e 193 196
e 194 196
e 194 211
e 194 408
e 194 461
e 195 196
e 197 261
e 197 262
e 197 493
e 198 199
e 198 200
e 198 233
e 198 490
e 198 530
e 199 200
e 199 458
e 199 514
e 200 412
e 200 458
e 201 204
e 201 234
e 201 515
e 202 263
e 202 518
e 203 332
e 203 364
e 203 368
e 203 369
e 203 483
e 203 484
e 204 234
e 205 488
e 205 491
e 205 510
e 205 526
e 205 527
e 206 260
e 206 262
e 206 408
e 206 409
e 206 493
e 206 512
e 207 208
e 207 209
e 207 309
e 207 494
e 207 551
e 208 209
e 208 494
e 209 359
e 210 211
e 210 461
e 211 461
e 211 472
e 211 474
e 211 486
e 212 232
e 212 236
e 212 402
e 212 405
e 212 454
e 212 507
e 212 550
e 213 214
e 213 220
e 213 224
e 213 375
e 213 377
e 213 426
e 214 219
e 214 429
e 214 430
e 215 217
e 215 218
e 215 297
e 215 379
e 216 282
e 216 286
e 216 298
e 216 379
e 216 426
e 217 218
e 217 221
e 217 297
e 218 221
e 218 376
e 218 379
e 219 406
e 219 429
e 219 438
e 219 439
e 219 479
e 220 376
e 220 377
e 220 426
e 221 376
e 221 377
e 222 435
e 222 450
e 223 226
e 223 227
e 223 384
e 223 453
e 223 456
e 224 225
e 224 375
e 225 375
e 225 427
e 225 428
e 226 227
e 226 383
e 227 383
e 227 384
e 228 392
e 228 395
e 229 232
e 229 280
e 229 314
e 229 550
e 230 231
e 230 287
e 230 288
e 231 288
e 232 236
e 232 280
e 232 550
e 233 515
e 233 521
e 234 515
e 235 236
e 235 541
e 235 549
e 236 280
e 236 400
e 236 454
e 236 481
e 237 337
e 237 339
e 237 341
e 237 342
e 237 345
e 238 327
e 238 336
e 238 337
e 240 241
e 240 243
e 240 245
e 241 242
e 242 243
e 243 245
e 243 249
e 243 250
e 243 251
e 243 252
e 243 299
e 243 449
e 245 449
e 246 247
e 247 248
e 247 349
e 249 250
e 249 256
e 250 251
e 250 256
e 250 542
e 250 543
e 251 252
e 251 544
e 252 323
e 252 450
e 252 452
e 252 544
e 253 254
e 253 324
e 253 437
e 254 255
e 254 436
e 255 256
e 255 434
e 256 431
e 256 542
e 257 364
e 257 387
e 257 501
e 257 506
e 258 447
e 260 262
e 260 415
e 261 262
e 261 415
e 263 264
e 263 265
e 263 515
e 264 265
e 264 493
e 265 408
e 265 493
e 265 515
e 265 519
e 266 267
e 266 275
e 266 278
e 267 275
e 267 276
e 267 277
e 267 278
e 267 279
e 267 405
e 268 269
e 268 369
e 268 370
e 268 374
e 269 370
e 269 373
e 269 374
e 270 271
e 270 273
e 270 346
e 271 273
e 271 274
e 272 273
e 272 325
e 272 326
e 272 391
e 272 395
e 272 448
e 272 545
e 273 274
e 273 326
e 275 276
e 275 278
e 275 352
e 275 354
e 275 405
e 276 277
e 276 278
e 276 279
e 276 362
e 280 400
e 281 283
e 281 429
e 281 431
e 281 436
e 281 437
e 282 286
e 282 298
e 282 303
e 282 378
e 283 429
e 283 432
e 283 438
e 284 285
e 284 286
e 284 378
e 284 380
e 286 378
e 286 426
e 287 288
e 288 442
e 289 290
e 290 291
e 290 294
e 291 294
e 292 293
e 292 302
e 292 519
e 293 300
e 293 301
e 293 302
e 293 365
e 293 519
e 294 295
e 294 296
e 294 305
e 295 296
e 295 305
e 296 297
e 296 305
e 297 298
e 298 303
e 298 304
e 298 305
e 298 379
e 299 304
e 299 452
e 300 301
e 300 365
e 301 302
e 301 396
e 302 396
e 302 519
e 303 304
e 303 323
e 303 378
e 304 305
e 304 306
e 304 307
e 304 323
e 304 452
e 305 306
e 306 307
e 306 317
e 306 548
e 307 317
e 308 315
e 308 316
e 309 310
e 309 388
e 309 389
e 309 455
e 309 456
e 311 459
e 311 466
e 311 467
e 311 468
e 312 313
e 313 314
e 314 361
e 314 495
e 315 316
e 315 321
e 315 322
e 316 317
e 317 319
e 317 320
e 317 548
e 318 319
e 318 331
e 318 548
e 319 320
e 319 330
e 319 548
e 320 329
e 320 330
e 321 322
e 321 328
e 322 327
e 323 378
e 323 450
e 323 452
e 324 432
e 324 451
e 325 326
e 325 391
e 327 328
e 327 336
e 328 329
e 328 336
e 329 330
e 329 331
e 329 334
e 329 335
e 329 336
e 330 331
e 332 333
e 332 417
e 332 484
e 333 354
e 333 417
e 334 335
e 334 446
e 335 336
e 335 339
e 335 340
e 336 337
e 336 338
e 336 339
e 337 338
e 338 339
e 339 340
e 340 341
e 340 446
e 341 342
e 341 343
e 341 446
e 342 343
e 342 345
e 342 347
e 343 344
e 343 347
e 344 347
e 345 347
e 346 347
e 348 349
e 350 533
e 350 534
e 350 535
e 351 352
e 351 353
e 351 354
e 351 419
e 351 443
e 351 532
e 352 353
e 352 354
e 353 532
e 353 533
e 353 534
e 353 535
e 354 404
e 354 405
e 354 417
e 354 419
e 355 356
e 355 357
e 355 358
e 356 357
e 356 358
e 357 358
e 357 359
e 359 389
e 361 362
e 361 407
e 362 407
e 363 364
e 364 368
e 364 381
e 364 382
e 364 501
e 365 366
e 365 489
e 365 519
e 366 367
e 366 489
e 368 369
e 368 382
e 368 455
e 368 536
e 368 538
e 369 370
e 369 371
e 369 374
e 369 399
e 369 483
e 369 502
e 369 536
e 370 371
e 370 373
e 370 536
e 371 373
e 371 374
e 371 399
e 371 536
e 372 385
e 372 386
e 372 387
e 373 374
e 375 426
e 375 428
e 376 377
e 376 379
e 376 426
e 379 426
e 380 426
e 380 427
e 381 382
e 381 383
e 381 453
e 381 500
e 381 501
e 382 383
e 382 455
e 383 384
e 383 453
e 383 455
e 383 456
e 384 456
e 385 386
e 385 387
e 385 552
e 386 387
e 387 500
e 387 501
e 387 506
e 387 507
e 387 552
e 388 389
e 390 392
e 390 394
e 390 395
e 390 462
e 391 393
e 391 395
e 391 538
e 392 395
e 392 462
e 393 394
e 393 395
e 393 399
e 393 478
e 393 480
e 393 536
e 393 538
e 394 395
e 394 462
e 394 480
e 394 545
e 395 545
e 396 397
e 396 398
e 396 504
e 396 505
e 397 398
e 399 478
e 399 502
e 399 503
e 399 536
e 399 537
e 400 481
e 401 467
e 401 471
e 401 481
e 402 403
e 402 404
e 402 405
e 402 506
e 402 507
e 403 404
e 403 405
e 404 405
e 405 550
e 406 479
e 406 512
e 407 422
e 407 531
e 408 486
e 408 493
e 408 512
e 408 519
e 409 410
e 409 511
e 409 512
e 410 488
e 410 512
e 410 525
e 411 414
e 411 458
e 411 489
e 412 413
e 412 414
e 412 457
e 413 414
e 413 512
e 414 458
e 414 489
e 414 512
e 415 516
e 415 522
e 415 524
e 416 417
e 416 420
e 416 421
e 417 418
e 417 419
e 417 420
e 417 484
e 418 419
e 418 425
e 418 443
e 418 484
e 419 443
e 420 421
e 422 531
e 423 424
e 423 425
e 424 425
e 424 482
e 424 483
e 424 502
e 424 503
e 425 443
e 425 484
e 426 427
e 426 428
e 427 428
e 429 430
e 429 431
e 429 438
e 429 542
e 431 434
e 431 436
e 432 433
e 432 437
e 432 438
e 433 438
e 433 439
e 434 436
e 435 544
e 436 437
e 438 439
e 439 444
e 439 479
e 439 547
e 440 441
e 440 443
e 440 487
e 440 496
e 441 443
e 441 496
e 441 497
e 441 498
e 442 443
e 442 487
e 443 487
e 443 498
e 444 479
e 444 545
e 444 546
e 444 547
e 448 545
e 448 546
e 449 451
e 450 544
e 454 507
e 454 549
e 455 456
e 455 538
e 457 529
e 457 530
e 458 489
e 458 514
e 459 460
e 459 481
e 461 539
e 463 465
e 463 467
e 463 470
e 463 475
e 464 468
e 464 469
e 464 471
e 464 476
e 465 466
e 465 467
e 465 468
e 465 470
e 465 476
e 466 467
e 466 468
e 467 469
e 467 471
e 467 475
e 468 471
e 469 471
e 469 475
e 470 475
e 470 476
e 472 474
e 472 486
e 473 485
e 474 485
e 475 476
e 477 478
e 477 479
e 478 479
e 478 480
e 478 489
e 478 512
e 479 480
e 479 512
e 479 545
e 480 545
e 481 541
e 482 483
e 482 484
e 483 484
e 483 502
e 487 496
e 488 525
e 488 526
e 489 490
e 489 512
e 489 514
e 489 519
e 490 514
e 491 510
e 491 511
e 492 517
e 494 551
e 494 552
e 496 497
e 497 498
e 499 500
e 499 501
e 500 501
e 500 551
e 500 552
e 502 503
e 504 505
e 506 507
e 508 517
e 508 529
e 508 530
e 509 510
e 509 529
e 510 523
e 510 528
e 510 529
e 511 520
e 513 516
e 515 519
e 515 521
e 516 522
e 517 530
e 520 523
e 520 524
e 522 523
e 522 524
e 525 526
e 525 527
e 525 528
e 526 527
e 527 528
e 528 529
e 532 533
e 533 534
e 534 535
e 536 537
e 536 538
e 539 540
e 542 543
e 543 544
e 545 546
e 546 547
e 551 552
c k 3
